[ma. 03. april 15:08:45 +0200 2023]  ./input/alternate_g_np/50-1-2.gcc
Set parameter Username
Academic license - for non-commercial use only - expires 2024-03-28
Set parameter TimeLimit to value 1800
Set parameter PreCrush to value 1
Set parameter LazyConstraints to value 1
Gurobi Optimizer version 10.0.1 build v10.0.1rc0 (linux64)

CPU model: AMD Ryzen 9 5950X 16-Core Processor, instruction set [SSE2|AVX|AVX2]
Thread count: 16 physical cores, 32 logical processors, using up to 32 threads

Optimize a model with 52 rows, 150 columns and 350 nonzeros
Model fingerprint: 0x70ec4b8f
Variable types: 0 continuous, 150 integer (150 binary)
Coefficient statistics:
  Matrix range     [1e+00, 1e+00]
  Objective range  [4e+00, 1e+02]
  Bounds range     [1e+00, 1e+00]
  RHS range        [1e+00, 1e+00]
Presolve time: 0.00s
Presolved: 52 rows, 150 columns, 350 nonzeros
Variable types: 0 continuous, 150 integer (150 binary)

Root relaxation: objective 2.764000e+03, 2 iterations, 0.00 seconds (0.00 work units)

    Nodes    |    Current Node    |     Objective Bounds      |     Work
 Expl Unexpl |  Obj  Depth IntInf | Incumbent    BestBd   Gap | It/Node Time

     0     0 2764.00000    0    2          - 2764.00000      -     -    0s
     0     0 2764.00000    0    8          - 2764.00000      -     -    0s
     0     0 2764.00000    0    -          - 2764.00000      -     -    0s
     0     0 2764.00000    0    -          - 2764.00000      -     -    0s
     0     0 2764.00000    0    -          - 2764.00000      -     -    0s
     0     0 2764.00000    0    -          - 2764.00000      -     -    0s
     0     0 2764.00000    0   12          - 2764.00000      -     -    0s
     0     0 2764.00000    0    2          - 2764.00000      -     -    0s
     0     0 2764.00000    0    -          - 2764.00000      -     -    0s
     0     0 2764.00000    0    -          - 2764.00000      -     -    0s
     0     0 2764.00000    0   14          - 2764.00000      -     -    0s
     0     2 2764.00000    0    8          - 2764.00000      -     -    0s
*16646  5627              27     255.0000000 1900.41667   645%  10.0    1s
*20104  7192              20     260.0000000 1848.00000   611%  10.2    2s
*20835  7452              29     269.0000000 1838.00000   583%  10.1    2s
*21075  7565              33     279.0000000 1838.00000   559%  10.2    2s
*22422  8024              37     289.0000000 1832.00000   534%  10.3    2s
*28394  8696              41     329.0000000 1772.00000   439%  12.2    2s
*29029  8666              39     398.0000000 1762.00000   343%  12.4    3s
*35796 11973              30     403.0000000 1727.50000   329%  13.0    3s
*45767 16304              34     449.0000000 1666.66667   271%  12.7    4s
 49092 17477  861.50000   57   14  449.00000 1651.00000   268%  12.8    5s
H49147 16632                     506.0000000 1004.00000  98.4%  12.9    5s
*52125 15838              37     543.0000000  743.12879  36.9%  12.8    5s
*53703 13542              39     563.0000000  666.00000  18.3%  12.7    5s

Cutting planes:
  User: 67
  Lazy constraints: 507

Explored 54185 nodes (685340 simplex iterations) in 5.98 seconds (2.09 work units)
Thread count was 32 (of 32 available processors)

Solution count 10: 563 543 506 ... 269

Optimal solution found (tolerance 1.00e-04)
Best objective 5.630000000000e+02, best bound 5.630000000000e+02, gap 0.0000%

User-callback calls 110308, time in user-callback 1.65 sec
Minimal separator inequalities added: 120653
Indegree inequalities added: 0
Passed solution check
[ma. 03. april 15:08:51 +0200 2023]  done

